; benchmark generated from python API
(set-info :status unknown)
(declare-fun S_4 () Real)
(declare-fun S_2 () Real)
(declare-fun C () Real)
(declare-fun S_0 () Real)
(declare-fun S_1 () Real)
(declare-fun S_3 () Real)
(declare-fun L_0 () Real)
(declare-fun A_0 () Real)
(declare-fun L0 () Real)
(declare-fun A_4 () Real)
(declare-fun L_4 () Real)
(declare-fun A_2 () Real)
(declare-fun A_1 () Real)
(declare-fun A_3 () Real)
(declare-fun L_3 () Real)
(declare-fun L_1 () Real)
(declare-fun L_2 () Real)
(assert
 (let (($x37 (>= L0 0.0)))
 (let (($x775 (>= C 5.0)))
 (let (($x20911 (<= 0.0 (+ (* (- 1.0) A_2) L_0 (* (- 2.0) C) (* (- 1.0) L_4) A_4))))
 (let (($x12178 (= L_4 L_0)))
 (let ((?x503 (* (- 1.0) A_1)))
 (let ((?x575 (* (- 1.0) L_0)))
 (let ((?x491 (* (- 1.0) A_4)))
 (let (($x11863 (not (= L_0 L_3))))
 (let (($x34028 (or $x11863 (<= (+ ?x491 A_3 L_4 ?x575 ?x503 A_2) 0.0) $x12178 $x20911)))
 (let (($x54 (= L_1 L_0)))
 (let (($x21404 (<= (+ (* 4.0 C) ?x491 L_4 S_0) (- 5.0))))
 (let ((?x249 (* (- 1.0) L_4)))
 (let ((?x281 (* (- 1.0) C)))
 (let ((?x495 (* (- 1.0) A_3)))
 (let ((?x20018 (+ ?x495 L_1 ?x281 ?x249 A_4)))
 (let (($x20513 (>= (+ (* (- 1.0) A_2) L_1 (* (- 2.0) C) ?x249 A_4) 5.0)))
 (let (($x19229 (<= (+ ?x281 A_2 ?x503) 0.0)))
 (let (($x19322 (not $x19229)))
 (let (($x9422 (= L_4 L_1)))
 (let (($x20729 (<= (+ (* 3.0 C) ?x491 L_4 S_1) (- 5.0))))
 (let ((?x499 (* (- 1.0) A_2)))
 (let ((?x19376 (+ C ?x499 L_2 S_1)))
 (let (($x19397 (<= 0.0 ?x19376)))
 (let ((?x18384 (+ ?x495 L_2 ?x281 ?x249 A_4)))
 (let (($x18787 (>= ?x18384 5.0)))
 (let ((?x476 (* (- 1.0) L_2)))
 (let ((?x462 (+ A_3 ?x476 C)))
 (let ((?x236 (+ A_4 ?x249)))
 (let (($x18762 (<= ?x236 ?x462)))
 (let (($x1745 (= L_4 L_2)))
 (let (($x345 (<= 0.0 (+ C S_0 ?x503 L_1))))
 (let (($x436 (not $x345)))
 (let (($x22347 (or $x436 $x1745 $x18762 $x18787 $x19229 (<= (+ (* 3.0 C) A_1 ?x491 L_4 ?x575) (- 5.0)))))
 (let (($x34291 (or $x436 $x9422 $x19229 (not (<= 0.0 (+ ?x491 A_3 L_4 ?x575 C))) (not (<= (+ C L_1 ?x495 ?x575 A_2) 0.0)) (<= (+ (* 2.0 C) L_1 ?x495 A_1 ?x575) (- 5.0)))))
 (let (($x20826 (>= (+ ?x499 L_1 ?x281 ?x476 A_3) 5.0)))
 (let (($x18273 (not $x18762)))
 (let (($x34052 (or $x345 $x1745 $x18273 (<= (+ (* 3.0 C) L_2 ?x495 S_0) (- 5.0)) $x19229)))
 (let (($x20579 (>= (+ ?x499 ?x281 A_3) 5.0)))
 (let (($x19723 (not (<= ?x236 (+ A_3 (* (- 1.0) L_1) C)))))
 (let (($x24459 (or $x9422 $x19322 $x19723 $x20579 (<= (+ (* 3.0 C) L_1 ?x495 S_0) (- 5.0)))))
 (let (($x21304 (not (<= L_1 (+ A_2 L_2 ?x495 C)))))
 (let ((?x3089 (* (- 2.0) L_1)))
 (let ((?x7346 (+ A_3 ?x3089 L_4 ?x491 A_1)))
 (let (($x7358 (>= S_1 ?x7346)))
 (let (($x1020 (<= 0.0 (+ ?x476 L_1))))
 (let (($x1021 (not $x1020)))
 (let (($x19450 (or $x1021 $x1745 $x7358 (not (<= (+ (* (- 3.0) C) ?x476 (* (- 1.0) S_1) A_3) 0.0)) $x21304)))
 (let (($x20505 (<= (+ (* (- 2.0) C) (* (- 1.0) L_1) (* (- 1.0) A_0) L_0 A_2) 0.0)))
 (let (($x20506 (not $x20505)))
 (let (($x18782 (not $x18787)))
 (let ((?x806 (+ A_0 ?x575)))
 (let (($x7349 (<= ?x7346 ?x806)))
 (let (($x20426 (<= L_1 (+ L_4 ?x491 A_1 (* 3.0 C)))))
 (let (($x20537 (not $x20426)))
 (let (($x20536 (= (+ (* (- 1.0) L_1) A_1 (* 3.0 C) ?x491 L_4) 0.0)))
 (let (($x20590 (<= (+ (* (- 2.0) C) (* (- 1.0) L_1) (* (- 1.0) S_1) A_2) 0.0)))
 (let ((?x20384 (+ A_3 ?x3089 L_4 ?x491 A_1 C)))
 (let (($x21187 (>= S_2 ?x20384)))
 (let (($x24480 (or $x1021 $x1745 $x21187 (not (<= (+ (* (- 2.0) C) ?x476 (* (- 1.0) S_2) A_3) 0.0)) $x21304)))
 (let (($x21211 (<= (+ (* (- 2.0) C) ?x476 (* (- 1.0) S_2) A_3) 0.0)))
 (let (($x20405 (<= (+ A_2 L_1) (+ A_3 L_4 ?x491 A_1 (* 2.0 C)))))
 (let (($x21115 (<= (+ (* (- 3.0) C) (* (- 1.0) L_1) (* (- 1.0) S_0) A_2) 0.0)))
 (let (($x20058 (>= S_0 (+ A_3 ?x3089 L_4 ?x491 A_1 ?x281))))
 (let (($x20663 (<= 0.0 (+ ?x281 A_3 ?x499))))
 (let (($x20664 (not $x20663)))
 (let (($x22339 (or $x1745 $x18762 (>= S_2 (+ A_2 ?x3089 (* 2.0 C) L_4 ?x491 A_1)) $x20536 $x20537 $x20664)))
 (let (($x33422 (or $x1745 $x18762 $x20536 $x20537 $x20664 (<= (+ ?x281 (* (- 1.0) L_1) (* (- 1.0) S_2) A_2) 0.0))))
 (let (($x34138 (or $x1745 $x18762 $x20536 $x20537 $x20664 (>= S_1 (+ A_2 ?x3089 C L_4 ?x491 A_1)))))
 (let (($x21116 (not $x21115)))
 (let (($x18547 (<= 0.0 (+ C A_2 ?x495))))
 (let (($x19747 (not (<= 0.0 (+ C S_0 ?x503 L_0)))))
 (let (($x5111 (= L_3 L_0)))
 (let (($x24289 (or $x5111 $x19229 $x19747 (not (<= (+ C L_3 ?x495 ?x575 A_2) 0.0)) (<= (+ (* 2.0 C) L_3 ?x495 A_1 ?x575) (- 5.0)))))
 (let (($x19204 (<= (+ (* 3.0 C) L_3 ?x495 S_0) (- 5.0))))
 (let ((?x470 (* (- 1.0) L_3)))
 (let ((?x19088 (+ ?x499 L_1 ?x281 ?x470 A_3)))
 (let (($x19089 (>= ?x19088 5.0)))
 (let (($x1687 (= L_3 L_1)))
 (let (($x20580 (not $x20579)))
 (let (($x19248 (<= 0.0 (+ (* (- 2.0) C) ?x503 A_3))))
 (let (($x33409 (or $x9422 (>= S_1 (+ A_2 (* (- 1.0) L_1) ?x495 A_1)) $x19248 $x19723 $x20580)))
 (let (($x19641 (or $x9422 $x19248 $x19723 $x20580 (>= S_0 (+ A_2 (* (- 1.0) L_1) ?x495 A_1 ?x281)))))
 (let (($x5630 (not (= L_1 L_3))))
 (let (($x35227 (or $x5630 $x9422 $x19248 $x19723 (>= S_2 (+ A_2 (* (- 1.0) L_1) ?x495 A_1 C)))))
 (let ((?x20414 (+ A_2 ?x3089 C L_4 ?x491 A_1)))
 (let (($x20430 (<= ?x20414 ?x806)))
 (let (($x19353 (or $x1745 (<= (+ A_2 ?x3089 L_2 ?x495 A_1) ?x806) $x20430 $x20506 (not $x20826))))
 (let (($x19933 (>= S_0 (+ A_2 A_3 (* (- 2.0) L_2) (* (- 2.0) C) L_4 ?x491))))
 (let (($x18412 (<= 0.0 (+ ?x476 (* 2.0 C) L_4 ?x491 A_2))))
 (let (($x18032 (not $x18412)))
 (let (($x17084 (= (+ (* (- 2.0) C) ?x499 L_2 A_4 ?x249) 0.0)))
 (let (($x18342 (or $x345 $x1020 (<= S_0 (+ A_2 A_3 (* (- 2.0) L_2) ?x281 L_4 ?x491)))))
 (let (($x22480 (or (>= S_2 (+ A_2 A_3 (* (- 2.0) L_2) L_4 ?x491)) $x1745 $x17084 $x18032 $x18782)))
 (let ((?x1438 (* (- 2.0) L_2)))
 (let ((?x1460 (+ A_2 A_3 ?x1438 L_4 ?x491)))
 (let (($x8286 (<= (+ A_1 ?x575) ?x1460)))
 (let (($x3635 (= L_2 L_0)))
 (let (($x3579 (not (= L_2 L_4))))
 (let (($x64 (= L_2 L_1)))
 (let (($x34444 (or $x64 $x3579 (<= (+ A_1 (* (- 1.0) L_1)) (+ A_2 A_3 ?x476 ?x491)) (<= S_0 (+ A_2 A_3 ?x476 ?x281 ?x491)))))
 (let (($x3621 (not (= L_0 L_1))))
 (let (($x34621 (or $x1745 $x3621 $x3635 (not $x8286) (= (+ (* 2.0 L_2) A_4 ?x495 ?x249 ?x575 A_1 ?x499) 0.0) (<= (+ (* 2.0 C) L_2 ?x495 A_1 ?x575) 0.0))))
 (let (($x675 (= L_2 L_3)))
 (let (($x1485 (not $x675)))
 (let (($x21762 (or $x1485 $x1745 $x17084 $x18032 (>= S_1 (+ A_2 A_3 ?x1438 ?x281 L_4 ?x491)))))
 (let (($x74 (= L_3 L_2)))
 (let (($x19498 (= (+ (* (- 2.0) C) ?x470 A_3 L_1 ?x503) 0.0)))
 (let (($x19090 (not $x19089)))
 (let (($x18917 (<= L_1 (+ L_3 ?x495 A_1 (* 2.0 C)))))
 (let (($x18918 (not $x18917)))
 (let (($x34885 (or $x1687 $x18918 $x19090 (>= S_2 (+ A_2 ?x3089 L_3 ?x495 A_1 C)) $x19498)))
 (let (($x84 (= L_4 L_3)))
 (let (($x33942 (or $x84 $x17084 $x18032 (not (<= (+ (* 2.0 C) L_3 ?x495 A_1 ?x575) 0.0)))))
 (let (($x23136 (or $x1485 $x1745 $x17084 $x18032 (<= (+ A_2 A_3 ?x1438 ?x281 L_4 ?x491) ?x806))))
 (let (($x36 (>= L_0 L0)))
 (let (($x111 (>= S_1 S_0)))
 (let (($x114 (>= S_2 S_1)))
 (let (($x122 (>= A_1 A_0)))
 (let (($x123 (>= A_2 A_1)))
 (and (<= (+ A_3 ?x470) S_4) (<= (+ A_2 ?x476) S_3) (not (<= (+ A_3 ?x470) S_3)) $x123 $x122 $x114 $x111 $x36 (or $x64 $x1021) (or $x54 $x64 (= (+ ?x281 A_2 ?x476 ?x503 L_1) 0.0)) (or $x74 (not (<= 0.0 ?x18384))) (or $x1485 $x1745 (<= 0.0 ?x18384)) (or $x675 (not (<= 0.0 (+ L_2 ?x470)))) (or $x64 $x74 (= (+ ?x281 ?x499 ?x470 L_2 A_3) 0.0)) (or (not (<= (+ ?x281 ?x495 A_4) 0.0)) $x84) (or $x74 (not (= L_3 L_4)) (<= (+ ?x281 ?x495 A_4) 0.0)) (or $x64 (<= (+ ?x499 L_2 S_2) (- 5.0))) (or $x54 (not (<= 0.0 (+ (* (- 1.0) L_1) L_0)))) (or $x64 (<= (+ ?x281 ?x499 L_2 S_3) (- 5.0))) (or $x64 $x345 (<= (+ (* 2.0 C) ?x499 L_2 S_0) (- 5.0))) (or $x64 $x1485 $x18547) (or $x345 (<= (+ C S_0 (* (- 1.0) S_2)) 0.0)) (or $x54 $x18917) (<= S_2 (+ A_2 (* (- 1.0) L_1))) (or $x74 $x84 (= (+ C ?x470 ?x491 A_3 L_4) 0.0)) (<= (+ (* (- 4.0) C) (* (- 1.0) S_1) S_4) 0.0) (or (not (= L_1 L_2)) $x1687 (<= 0.0 ?x19088)) (or (not (<= 0.0 (+ L_2 ?x249))) $x1745) (or $x54 (not (= L_1 L_2)) $x19229) (<= (+ (* (- 4.0) C) (* (- 1.0) S_0) S_3) 0.0) (or $x74 $x345 $x19204 $x19229) (<= (+ L_3 S_4 ?x491) 0.0) (or $x54 (<= (+ C L_1 ?x503 S_0) (- 5.0))) (or $x3621 $x3635 (<= 0.0 (+ ?x281 A_2 ?x476 L_0 ?x503))) (or $x54 (<= (+ L_1 ?x503 S_1) (- 5.0))) (or $x54 (<= S_1 (+ A_2 ?x3089 L_3 ?x495 A_1 C))) (or $x3635 (<= (+ C ?x499 L_2 A_1 ?x575) (- 5.0)) $x19747) (or $x436 (<= (+ A_1 ?x575 (* (- 1.0) S_2)) 0.0)) (or $x74 (<= (+ ?x281 L_3 ?x495 S_4) (- 5.0))) (or $x64 (<= S_2 (+ A_3 ?x1438 C L_4 ?x491 A_2))) (or $x64 $x18412) $x23136 (or $x1485 $x1745 $x17084 $x18032 $x18787) $x33942 (<= S_4 ?x462) (<= (+ ?x281 ?x499 L_2 S_3) 0.0) (or $x74 (<= (+ A_2 ?x3089 L_3 ?x495 A_1) ?x806) $x18918 $x19498) (or $x54 (<= S_0 (+ A_2 ?x3089 L_3 ?x495 A_1))) (<= (+ (* (- 4.0) C) (* (- 1.0) A_0) L_0 S_4) 0.0) (or $x74 $x18918 $x19089 $x19498) $x34885 (<= (+ L_1 ?x503 S_1) 0.0) (<= (+ ?x281 ?x503 L_1 S_2) 0.0) (or $x74 $x18918 $x19498 (>= S_0 (+ A_2 ?x3089 L_3 ?x495 A_1 ?x281))) (<= S_4 (+ A_2 (* (- 1.0) L_1) (* 2.0 C))) (or $x54 $x3579 (<= L_1 (+ L_2 ?x491 A_1 (* 3.0 C)))) (or $x54 $x20426) (or $x1485 $x1745 $x18787 $x20536 $x20537 (<= (+ ?x281 ?x503 A_2) (- 5.0))) (or $x1485 $x1745 $x18787 $x20513 (not (<= (+ ?x281 ?x503 A_2) (- 5.0)))) (or $x54 (<= S_1 (+ A_2 ?x3089 (* 2.0 C) L_4 ?x491 A_1))) (or $x64 (<= ?x19376 (- 5.0))) (or $x1687 $x18918 $x19090 $x19498 $x20590) (or $x74 (>= S_1 (+ A_2 ?x3089 L_3 ?x495 A_1)) (not $x20590)) (or $x74 (<= (+ L_3 ?x495 S_3) (- 5.0))) (or $x74 $x19089 (<= (+ (* 2.0 C) L_3 ?x495 S_1) (- 5.0))) (or $x64 (<= (+ (* (- 2.0) C) ?x499 L_2 S_4) (- 5.0))) $x21762 $x34621 (or $x1485 $x1745 $x18787 $x20505 $x20536 $x20537) (or $x1745 $x18762 $x18787 $x20430 $x20506) (or $x1020 (<= S_1 ?x1460)) $x34444 (or $x3635 $x8286 $x19747) $x22480 $x18342 (or $x1745 $x17084 $x18032 $x18762 $x19933) (or $x84 (<= (+ ?x491 L_4 S_4) (- 5.0))) (or $x1745 $x18547 $x18782 $x20430 $x20506) $x19353 (<= (+ (* (- 3.0) C) (* (- 1.0) S_1) S_3) 0.0) (or $x54 (<= S_0 ?x20414)) $x35227 $x19641 $x33409 (or $x1687 $x19089 $x19204 $x19322) $x24289 (or $x1745 $x18547 $x18762 $x20536 $x20537 $x21115) (or $x1745 (>= S_0 (+ A_2 ?x3089 L_4 ?x491 A_1)) $x18547 $x18762 $x21116) (or $x54 (<= (+ ?x281 ?x503 L_1 S_2) (- 5.0))) (or $x54 (<= S_1 ?x20384)) (or $x54 (<= S_2 (+ A_3 ?x3089 L_4 ?x491 A_1 (* 2.0 C)))) $x34138 $x33422 $x22339 (or $x1745 $x18762 $x18787 (<= (+ (* 2.0 C) ?x491 L_4 S_2) (- 5.0))) (or $x1745 $x18782 $x20058 $x21116 $x21304) (or $x1021 $x1745 $x18782 $x20058 $x20536 $x20537 $x21115) (or $x1745 $x20663 $x21187 (not $x20405)) (or $x54 (<= S_0 ?x7346)) (or $x1745 $x20405 $x20536 $x20537 $x21211) $x24480 (or $x1021 $x1745 $x7358 $x18782 $x20536 $x20537 $x20590) (or $x1021 $x1745 $x7349 $x18782 $x20505 $x20536 $x20537) (or $x1745 $x7349 $x18782 $x20506 $x21304) $x19450 (<= (+ (* (- 2.0) C) ?x503 L_0 S_3) 0.0) $x24459 $x34052 (or $x1745 $x18273 $x20826 (<= (+ (* 2.0 C) L_2 ?x495 S_1) (- 5.0))) (or $x1745 $x18273 (<= (+ C L_2 ?x495 S_2) (- 5.0))) (or $x1745 $x18547 $x18762 $x20513 (not $x19397)) (or $x1745 $x18762 (<= (+ C ?x491 L_4 S_3) (- 5.0))) (or $x54 (<= (+ (* (- 2.0) C) ?x503 L_1 S_3) (- 5.0))) (or $x74 (<= (+ C L_3 ?x495 S_2) (- 5.0))) (or $x1745 $x18273 (<= (+ L_2 ?x495 S_3) (- 5.0))) $x34291 (or $x345 $x1745 $x18762 $x18787 $x19229 $x21404) $x22347 (or $x1745 $x18762 $x18787 $x20729 $x21304) (or $x1745 $x18762 $x18787 $x19397 $x20729) (or $x9422 $x19322 $x20513 (>= ?x20018 5.0) (not (<= 0.0 ?x20018)) $x21404) (or $x54 (<= (+ (* (- 3.0) C) ?x503 L_1 S_4) (- 5.0))) (<= (+ (* (- 3.0) C) ?x503 L_0 S_4) 0.0) $x34028 $x775 $x37 (<= (+ L_0 (* (- 1.0) A_0) S_0) 0.0) (<= (+ (* (- 3.0) C) (* (- 1.0) S_0) S_2) 0.0) (<= (+ (* (- 2.0) C) L_0 (* (- 1.0) A_0) S_2) 0.0) (<= (+ (* (- 2.0) C) (* (- 1.0) S_1) S_2) 0.0) (<= (+ ?x281 (* (- 1.0) A_0) L_0 S_1) 0.0) (<= (+ (* (- 3.0) C) (* (- 1.0) A_0) L_0 S_3) 0.0) (<= (+ (* (- 2.0) C) (* (- 1.0) S_2) S_3) 0.0) (<= (+ (* (- 2.0) C) (* (- 1.0) S_0) S_1) 0.0) (<= (+ (* (- 5.0) C) (* (- 1.0) S_0) S_4) 0.0) (<= (+ (* (- 3.0) C) (* (- 1.0) S_2) S_4) 0.0))))))))))))))))))))))))))))))))))))))))))))))))))))))))))))))))))))))))))))))))))))))))))))))))))))))))))))))))))))))))))
(check-sat)
